NPROCS=0
This instance is clustered!
Gurobi Optimizer version 9.0.0 build v9.0.0rc2 (linux64)
Optimize a model with 32 rows, 257 columns and 512 nonzeros
Model fingerprint: 0xa87a1a11
Variable types: 1 continuous, 256 integer (256 binary)
Coefficient statistics:
  Matrix range     [1e+00, 1e+00]
  Objective range  [1e+00, 2e+02]
  Bounds range     [1e+00, 1e+00]
  RHS range        [1e+00, 1e+00]
Presolve removed 2 rows and 45 columns
Presolve time: 0.00s
Presolved: 30 rows, 212 columns, 422 nonzeros
Variable types: 1 continuous, 211 integer (211 binary)

Root relaxation: objective 4.967048e+02, 26 iterations, 0.00 seconds

    Nodes    |    Current Node    |     Objective Bounds      |     Work
 Expl Unexpl |  Obj  Depth IntInf | Incumbent    BestBd   Gap | It/Node Time

     0     0  509.08929    0    8          -  509.08929      -     -    0s
     0     0  562.84611    0   20          -  562.84611      -     -    0s
H    0     0                     710.1340750  562.84611  20.7%     -    0s
     0     0  565.85247    0   25  710.13407  565.85247  20.3%     -    0s
H    0     0                     670.2214579  565.85247  15.6%     -    0s
     0     0  566.59693    0   31  670.22146  566.59693  15.5%     -    0s
H    0     0                     650.8315251  566.59693  12.9%     -    0s
     0     0  566.59693    0   30  650.83153  566.59693  12.9%     -    0s
     0     0  566.95775    0   30  650.83153  566.95775  12.9%     -    0s
     0     0  567.62667    0   37  650.83153  567.62667  12.8%     -    0s
     0     0  567.70602    0   37  650.83153  567.70602  12.8%     -    0s
     0     0  567.71897    0   38  650.83153  567.71897  12.8%     -    0s
     0     0  567.72588    0   37  650.83153  567.72588  12.8%     -    0s
     0     0  568.32456    0   37  650.83153  568.32456  12.7%     -    0s
     0     0  569.81414    0   34  650.83153  569.81414  12.4%     -    0s
     0     0  569.93673    0   37  650.83153  569.93673  12.4%     -    0s
     0     0  571.18616    0   41  650.83153  571.18616  12.2%     -    0s
     0     0  571.48719    0   37  650.83153  571.48719  12.2%     -    0s
     0     0  571.48757    0   39  650.83153  571.48757  12.2%     -    0s
     0     0  572.81701    0   34  650.83153  572.81701  12.0%     -    0s
     0     0  572.90979    0   34  650.83153  572.90979  12.0%     -    0s
     0     0  573.04835    0   41  650.83153  573.04835  12.0%     -    0s
     0     0  573.27211    0   38  650.83153  573.27211  11.9%     -    0s
     0     0  573.34227    0   39  650.83153  573.34227  11.9%     -    0s
     0     0  573.35674    0   37  650.83153  573.35674  11.9%     -    0s
     0     0  573.39763    0   37  650.83153  573.39763  11.9%     -    0s
     0     0  573.39763    0   37  650.83153  573.39763  11.9%     -    0s
     0     2  573.39763    0   37  650.83153  573.39763  11.9%     -    0s

Cutting planes:
  Gomory: 1
  MIR: 5
  Zero half: 8
  RLT: 1
  Lazy constraints: 407

Explored 7801 nodes (42131 simplex iterations) in 0.95 seconds
Thread count was 12 (of 12 available processors)

Solution count 3: 650.832 670.221 710.134 

Optimal solution found (tolerance 1.00e-04)
Best objective 6.508315251398e+02, best bound 6.508315251398e+02, gap 0.0000%

User-callback calls 16622, time in user-callback 0.03 sec
/projects/academic/josewalt/caigao/RRARP_BD/BendersDecomp/ret/model_outs/n_14_e_1_algo_3.out
 =====>>>>> Solution is written to file in <../ret/model_outs> !!!
===>> All Done!
